GLPSOL--GLPK LP/MIP Solver 5.0
Parameter(s) specified in the command line:
 --cpxlp /tmp/8e67299d26c144d98055ed5845761450-pulp.lp -o /tmp/8e67299d26c144d98055ed5845761450-pulp.out
 -w /tmp/8e67299d26c144d98055ed5845761450-pulp.sol --dual --log glpk_dual_simplex_temp.log
Reading problem data from '/tmp/8e67299d26c144d98055ed5845761450-pulp.lp'...
15001 rows, 151 columns, 158001 non-zeros
62454 lines were read
GLPK Simplex Optimizer 5.0
15001 rows, 151 columns, 158001 non-zeros
Preprocessing...
14995 rows, 150 columns, 157995 non-zeros
Scaling...
 A: min|aij| =  1.000e-01  max|aij| =  9.375e+00  ratio =  9.375e+01
Problem data seem to be well scaled
Constructing initial basis...
Size of triangular part is 14995
#     0: obj =   6.649398145e-01 inf =   0.000e+00 (7440)
#   817: obj =   1.080360237e+02 inf =   0.000e+00 (0) 8
OPTIMAL LP SOLUTION FOUND
Time used:   0.9 secs
Memory used: 36.7 Mb (38472813 bytes)
Writing basic solution to '/tmp/8e67299d26c144d98055ed5845761450-pulp.out'...
Writing basic solution to '/tmp/8e67299d26c144d98055ed5845761450-pulp.sol'...
15161 lines were written
